99
raw_data/mm-rcpsp/MMLIB50/J5020_4.mm
Time limit set to 60 seconds
Running CP solver
/home/omastto1/General-Optimization-Solver/src/solvers/mmrcpsp.py:42(stream:276:6): Warning: Cumulative expression 'pulse': height is zero, expression is zero everywhere.
                                                                                               VarCumulAtom_419 = pulse(task_0_mode_0, 0)
/home/omastto1/General-Optimization-Solver/src/solvers/mmrcpsp.py:42(stream:276:3907): Warning: Cumulative expression 'pulse': height is zero, expression is zero everywhere.
                                                                                                  VarCumulAtom_570 = pulse(task_51_mode_0, 0)
/home/omastto1/General-Optimization-Solver/src/solvers/mmrcpsp.py:42(stream:277:6): Warning: Cumulative expression 'pulse': height is zero, expression is zero everywhere.
                                                                                               VarCumulAtom_574 = pulse(task_0_mode_0, 0)
/home/omastto1/General-Optimization-Solver/src/solvers/mmrcpsp.py:42(stream:277:3912): Warning: Cumulative expression 'pulse': height is zero, expression is zero everywhere.
                                                                                                  VarCumulAtom_725 = pulse(task_51_mode_0, 0)
 ! --------------------------------------------------- CP Optimizer 20.1.0.0 --
 ! Minimization problem - 205 variables, 273 constraints
 ! TimeLimit            = 60
 ! Workers              = 14
 ! LogVerbosity         = Terse
 ! Initial process time : 0.02s (0.02s extraction + 0.00s propagation)
 !  . Log search space  : 519.7 (before), 519.7 (after)
 !  . Memory usage      : 1.3 MB (before), 1.3 MB (after)
 ! Using parallel search with 14 workers.
 ! ----------------------------------------------------------------------------
 !          Best Branches  Non-fixed    W       Branch decision
                        0        205                 -
 + New bound is 21
 ! Using iterative diving.
 ! Using temporal relaxation.
 *            43      112  0.81s        1      (gap is 51.16%)
 *            42      374  0.81s        1      (gap is 50.00%)
 *            41      518  0.81s        1      (gap is 48.78%)
 *            40      626  0.81s        1      (gap is 47.50%)
 *            39      734  0.81s        1      (gap is 46.15%)
 *            38      842  0.81s        1      (gap is 44.74%)
 *            35     1029  0.81s        1      (gap is 40.00%)
 *            34     1079  0.81s        1      (gap is 38.24%)
 *            33     1250  0.81s        1      (gap is 36.36%)
 *            32     1544  0.81s        1      (gap is 34.38%)
 *            31     1511  0.81s        5      (gap is 32.26%)
 *            30     1591  0.81s       10      (gap is 30.00%)
 *            29     1971  1.56s        1      (gap is 27.59%)
 ! Using failure-directed search.
 *            28     2312  1.56s        2      (gap is 25.00%)
 *            27     4037  2.31s        2      (gap is 22.22%)
 *            26    14369  5.17s        7      (gap is 19.23%)
 ! ----------------------------------------------------------------------------
 ! Search terminated by limit, 16 solutions found.
 ! Best objective         : 26 (gap is 19.23%)
 ! Best bound             : 21
 ! ----------------------------------------------------------------------------
 ! Number of branches     : 5323279
 ! Number of fails        : 933150
 ! Total memory usage     : 19.6 MB (19.5 MB CP Optimizer + 0.2 MB Concert)
 ! Time spent in solve    : 60.04s (60.02s engine + 0.02s extraction)
 ! Search speed (br. / s) : 88691.8
 ! ----------------------------------------------------------------------------
task_0: (start=0, end=0, size=0, length=0)
Task 0 is scheduled in mode 0 from 0 to 0
task_1: (start=0, end=3, size=3, length=3)
Task 1 is scheduled in mode 0 from 0 to 3
task_2: (start=0, end=5, size=5, length=5)
Task 2 is scheduled in mode 1 from 0 to 5
task_3: (start=0, end=1, size=1, length=1)
Task 3 is scheduled in mode 0 from 0 to 1
task_4: (start=1, end=7, size=6, length=6)
Task 4 is scheduled in mode 2 from 1 to 7
task_5: (start=0, end=5, size=5, length=5)
Task 5 is scheduled in mode 0 from 0 to 5
task_6: (start=4, end=8, size=4, length=4)
Task 6 is scheduled in mode 2 from 4 to 8
task_7: (start=0, end=3, size=3, length=3)
Task 7 is scheduled in mode 1 from 0 to 3
task_8: (start=0, end=3, size=3, length=3)
Task 8 is scheduled in mode 0 from 0 to 3
task_9: (start=0, end=3, size=3, length=3)
Task 9 is scheduled in mode 1 from 0 to 3
task_10: (start=0, end=5, size=5, length=5)
Task 10 is scheduled in mode 2 from 0 to 5
task_11: (start=5, end=13, size=8, length=8)
Task 11 is scheduled in mode 0 from 5 to 13
task_12: (start=4, end=12, size=8, length=8)
Task 12 is scheduled in mode 2 from 4 to 12
task_13: (start=0, end=3, size=3, length=3)
Task 13 is scheduled in mode 1 from 0 to 3
task_14: (start=1, end=7, size=6, length=6)
Task 14 is scheduled in mode 1 from 1 to 7
task_15: (start=5, end=12, size=7, length=7)
Task 15 is scheduled in mode 2 from 5 to 12
task_16: (start=1, end=8, size=7, length=7)
Task 16 is scheduled in mode 2 from 1 to 8
task_17: (start=3, end=4, size=1, length=1)
Task 17 is scheduled in mode 0 from 3 to 4
task_18: (start=3, end=7, size=4, length=4)
Task 18 is scheduled in mode 1 from 3 to 7
task_19: (start=3, end=4, size=1, length=1)
Task 19 is scheduled in mode 0 from 3 to 4
task_20: (start=5, end=12, size=7, length=7)
Task 20 is scheduled in mode 2 from 5 to 12
task_21: (start=8, end=9, size=1, length=1)
Task 21 is scheduled in mode 0 from 8 to 9
task_22: (start=3, end=12, size=9, length=9)
Task 22 is scheduled in mode 2 from 3 to 12
task_23: (start=13, end=15, size=2, length=2)
Task 23 is scheduled in mode 0 from 13 to 15
task_24: (start=8, end=18, size=10, length=10)
Task 24 is scheduled in mode 2 from 8 to 18
task_25: (start=9, end=15, size=6, length=6)
Task 25 is scheduled in mode 2 from 9 to 15
task_26: (start=5, end=15, size=10, length=10)
Task 26 is scheduled in mode 2 from 5 to 15
task_27: (start=9, end=12, size=3, length=3)
Task 27 is scheduled in mode 1 from 9 to 12
task_28: (start=12, end=15, size=3, length=3)
Task 28 is scheduled in mode 1 from 12 to 15
task_29: (start=15, end=16, size=1, length=1)
Task 29 is scheduled in mode 0 from 15 to 16
task_30: (start=15, end=17, size=2, length=2)
Task 30 is scheduled in mode 1 from 15 to 17
task_31: (start=15, end=18, size=3, length=3)
Task 31 is scheduled in mode 0 from 15 to 18
task_32: (start=9, end=19, size=10, length=10)
Task 32 is scheduled in mode 2 from 9 to 19
task_33: (start=22, end=25, size=3, length=3)
Task 33 is scheduled in mode 0 from 22 to 25
task_34: (start=18, end=26, size=8, length=8)
Task 34 is scheduled in mode 2 from 18 to 26
task_35: (start=18, end=22, size=4, length=4)
Task 35 is scheduled in mode 2 from 18 to 22
task_36: (start=19, end=21, size=2, length=2)
Task 36 is scheduled in mode 0 from 19 to 21
task_37: (start=21, end=26, size=5, length=5)
Task 37 is scheduled in mode 1 from 21 to 26
task_38: (start=17, end=26, size=9, length=9)
Task 38 is scheduled in mode 2 from 17 to 26
task_39: (start=19, end=26, size=7, length=7)
Task 39 is scheduled in mode 2 from 19 to 26
task_40: (start=16, end=26, size=10, length=10)
Task 40 is scheduled in mode 2 from 16 to 26
task_41: (start=7, end=9, size=2, length=2)
Task 41 is scheduled in mode 0 from 7 to 9
task_42: (start=12, end=15, size=3, length=3)
Task 42 is scheduled in mode 1 from 12 to 15
task_43: (start=12, end=16, size=4, length=4)
Task 43 is scheduled in mode 1 from 12 to 16
task_44: (start=18, end=26, size=8, length=8)
Task 44 is scheduled in mode 2 from 18 to 26
task_45: (start=12, end=21, size=9, length=9)
Task 45 is scheduled in mode 2 from 12 to 21
task_46: (start=12, end=19, size=7, length=7)
Task 46 is scheduled in mode 2 from 12 to 19
task_47: (start=15, end=19, size=4, length=4)
Task 47 is scheduled in mode 2 from 15 to 19
task_48: (start=12, end=19, size=7, length=7)
Task 48 is scheduled in mode 2 from 12 to 19
task_49: (start=4, end=8, size=4, length=4)
Task 49 is scheduled in mode 1 from 4 to 8
task_50: (start=7, end=12, size=5, length=5)
Task 50 is scheduled in mode 2 from 7 to 12
task_51: (start=26, end=26, size=0, length=0)
Task 51 is scheduled in mode 0 from 26 to 26
Feasible solution found
Objective value: 26
Solution is 23.8 % worse than the lower bound.
